min: c;

c = 2.6772562890454 * u1_t7_h4 + 3.98064705718393 * u1_t7_h5 + 3.55781085943513 * u1_t5_h6 + 3.55781085943513 * u1_t7_h6 + 4.00904642084635 * u1_t5_h7 + 4.00904642084635 * u1_t7_h7 + 4.00904642084635 * u1_t9_h7 + 5.01477268790558 * u1_t5_h8 + 5.01477268790558 * u1_t7_h8 + 5.01477268790558 * u1_t9_h8 + 5.01477268790558 * u1_t10_h8 + 5.36499598339738 * u1_t5_h9 + 5.36499598339738 * u1_t7_h9 + 5.36499598339738 * u1_t9_h9 + 5.36499598339738 * u1_t10_h9 + 5.87363024427476 * u1_t5_h10 + 5.87363024427476 * u1_t7_h10 + 5.87363024427476 * u1_t9_h10 + 5.87363024427476 * u1_t10_h10 + 4.08224456310929 * u1_t5_h11 + 4.08224456310929 * u1_t9_h11 + 4.08224456310929 * u1_t10_h11 + 5.71706380565975 * u1_t4_h12 + 5.71706380565975 * u1_t5_h12 + 5.71706380565975 * u1_t8_h12 + 5.71706380565975 * u1_t9_h12 + 5.71706380565975 * u1_t10_h12 + 4.73389422099893 * u1_t4_h13 + 4.73389422099893 * u1_t8_h13 + 4.73389422099893 * u1_t9_h13 + 4.73389422099893 * u1_t10_h13 + 5.27998651655862 * u1_t4_h14 + 5.27998651655862 * u1_t8_h14 + 5.27998651655862 * u1_t9_h14 + 5.27998651655862 * u1_t10_h14 + 6.22798789565585 * u1_t4_h15 + 6.22798789565585 * u1_t8_h15 + 5.76356030384644 * u1_t4_h16 + 5.76356030384644 * u1_t8_h16 + 6.78671338852273 * u1_t4_h17 + 6.78671338852273 * u1_t8_h17 + 6.45865333731795 * u1_t2_h18 + 6.45865333731795 * u1_t4_h18 + 6.45865333731795 * u1_t6_h18 + 6.45865333731795 * u1_t8_h18 + 5.09095246759086 * u1_t2_h19 + 5.09095246759086 * u1_t3_h19 + 5.09095246759086 * u1_t4_h19 + 5.09095246759086 * u1_t6_h19 + 5.42523258743825 * u1_t1_h20 + 5.42523258743825 * u1_t2_h20 + 5.42523258743825 * u1_t3_h20 + 5.42523258743825 * u1_t4_h20 + 5.42523258743825 * u1_t6_h20 + 5.70714813195008 * u1_t1_h21 + 5.70714813195008 * u1_t2_h21 + 5.70714813195008 * u1_t3_h21 + 5.79052897724716 * u1_t1_h22 + 5.79052897724716 * u1_t2_h22 + 5.27022164154772 * u1_t1_h23 + 5.27022164154772 * u1_t2_h23;
0 <= u1_t1_h20 <= 1;
0 <= u1_t1_h21 <= 1;
0 <= u1_t1_h22 <= 1;
0 <= u1_t1_h23 <= 1;
u1_t1_h20 + u1_t1_h21 + u1_t1_h22 + u1_t1_h23 = 1;
0 <= u1_t2_h18 <= 1;
0 <= u1_t2_h19 <= 1;
0 <= u1_t2_h20 <= 1;
0 <= u1_t2_h21 <= 1;
0 <= u1_t2_h22 <= 1;
0 <= u1_t2_h23 <= 1;
u1_t2_h18 + u1_t2_h19 + u1_t2_h20 + u1_t2_h21 + u1_t2_h22 + u1_t2_h23 = 2;
0 <= u1_t3_h19 <= 1;
0 <= u1_t3_h20 <= 1;
0 <= u1_t3_h21 <= 1;
u1_t3_h19 + u1_t3_h20 + u1_t3_h21 = 1;
0 <= u1_t4_h12 <= 1;
0 <= u1_t4_h13 <= 1;
0 <= u1_t4_h14 <= 1;
0 <= u1_t4_h15 <= 1;
0 <= u1_t4_h16 <= 1;
0 <= u1_t4_h17 <= 1;
0 <= u1_t4_h18 <= 1;
0 <= u1_t4_h19 <= 1;
0 <= u1_t4_h20 <= 1;
u1_t4_h12 + u1_t4_h13 + u1_t4_h14 + u1_t4_h15 + u1_t4_h16 + u1_t4_h17 + u1_t4_h18 + u1_t4_h19 + u1_t4_h20 = 3;
0 <= u1_t5_h6 <= 1;
0 <= u1_t5_h7 <= 1;
0 <= u1_t5_h8 <= 1;
0 <= u1_t5_h9 <= 1;
0 <= u1_t5_h10 <= 1;
0 <= u1_t5_h11 <= 1;
0 <= u1_t5_h12 <= 1;
u1_t5_h6 + u1_t5_h7 + u1_t5_h8 + u1_t5_h9 + u1_t5_h10 + u1_t5_h11 + u1_t5_h12 = 3;
0 <= u1_t6_h18 <= 1;
0 <= u1_t6_h19 <= 1;
0 <= u1_t6_h20 <= 1;
u1_t6_h18 + u1_t6_h19 + u1_t6_h20 = 2;
0 <= u1_t7_h4 <= 1;
0 <= u1_t7_h5 <= 1;
0 <= u1_t7_h6 <= 1;
0 <= u1_t7_h7 <= 1;
0 <= u1_t7_h8 <= 1;
0 <= u1_t7_h9 <= 1;
0 <= u1_t7_h10 <= 1;
u1_t7_h4 + u1_t7_h5 + u1_t7_h6 + u1_t7_h7 + u1_t7_h8 + u1_t7_h9 + u1_t7_h10 = 2;
0 <= u1_t8_h12 <= 1;
0 <= u1_t8_h13 <= 1;
0 <= u1_t8_h14 <= 1;
0 <= u1_t8_h15 <= 1;
0 <= u1_t8_h16 <= 1;
0 <= u1_t8_h17 <= 1;
0 <= u1_t8_h18 <= 1;
u1_t8_h12 + u1_t8_h13 + u1_t8_h14 + u1_t8_h15 + u1_t8_h16 + u1_t8_h17 + u1_t8_h18 = 2;
0 <= u1_t9_h7 <= 1;
0 <= u1_t9_h8 <= 1;
0 <= u1_t9_h9 <= 1;
0 <= u1_t9_h10 <= 1;
0 <= u1_t9_h11 <= 1;
0 <= u1_t9_h12 <= 1;
0 <= u1_t9_h13 <= 1;
0 <= u1_t9_h14 <= 1;
u1_t9_h7 + u1_t9_h8 + u1_t9_h9 + u1_t9_h10 + u1_t9_h11 + u1_t9_h12 + u1_t9_h13 + u1_t9_h14 = 3;
0 <= u1_t10_h8 <= 1;
0 <= u1_t10_h9 <= 1;
0 <= u1_t10_h10 <= 1;
0 <= u1_t10_h11 <= 1;
0 <= u1_t10_h12 <= 1;
0 <= u1_t10_h13 <= 1;
0 <= u1_t10_h14 <= 1;
u1_t10_h8 + u1_t10_h9 + u1_t10_h10 + u1_t10_h11 + u1_t10_h12 + u1_t10_h13 + u1_t10_h14 = 3;
